
Gurobi 9.1.1 (win64) logging started Sun Mar 13 19:54:31 2022

Changed value of parameter LogFile to ./Log/Pattern_Appro_solver_900_order_60_batch.log
   Prev:   Default: 
Gurobi Optimizer version 9.1.1 build v9.1.1rc0 (win64)
Thread count: 6 physical cores, 12 logical processors, using up to 12 threads
Optimize a model with 3314 rows, 25320 columns and 102600 nonzeros
Model fingerprint: 0x2e0577c8
Variable types: 0 continuous, 25320 integer (21060 binary)
Coefficient statistics:
  Matrix range     [1e+00, 2e+01]
  Objective range  [1e+00, 4e+01]
  Bounds range     [1e+00, 5e+01]
  RHS range        [1e+00, 5e+01]
Found heuristic solution: objective 10305.000000
Presolve removed 255 rows and 1765 columns
Presolve time: 0.11s
Presolved: 3059 rows, 23555 columns, 92410 nonzeros
Variable types: 0 continuous, 23555 integer (19506 binary)

Root relaxation: objective 2.005049e+03, 14249 iterations, 0.41 seconds

    Nodes    |    Current Node    |     Objective Bounds      |     Work
 Expl Unexpl |  Obj  Depth IntInf | Incumbent    BestBd   Gap | It/Node Time

     0     0 2005.04945    0  392 10305.0000 2005.04945  80.5%     -    0s
H    0     0                    5782.0000000 2005.04945  65.3%     -    0s
H    0     0                    5727.0000000 2005.04945  65.0%     -    0s
H    0     0                    5618.0000000 2005.04945  64.3%     -    1s
H    0     0                    5615.0000000 2005.04945  64.3%     -    2s
H    0     0                    5580.0000000 2006.54945  64.0%     -    2s
     0     0 2056.77021    0  632 5580.00000 2056.77021  63.1%     -    2s
H    0     0                    4970.0000000 2056.77021  58.6%     -    2s
     0     0 2059.86084    0  689 4970.00000 2059.86084  58.6%     -    2s
     0     0 2059.96701    0  688 4970.00000 2059.96701  58.6%     -    2s
     0     0 2059.96710    0  689 4970.00000 2059.96710  58.6%     -    2s
H    0     0                    4945.0000000 2059.96710  58.3%     -    2s
     0     0 2119.29009    0  904 4945.00000 2119.29009  57.1%     -    3s
H    0     0                    4676.0000000 2119.29009  54.7%     -    4s
     0     0 2126.11425    0  928 4676.00000 2126.11425  54.5%     -    4s
     0     0 2128.89205    0  966 4676.00000 2128.89205  54.5%     -    4s
     0     0 2130.55371    0  981 4676.00000 2130.55371  54.4%     -    4s
     0     0 2132.13446    0  955 4676.00000 2132.13446  54.4%     -    4s
     0     0 2132.18106    0  967 4676.00000 2132.18106  54.4%     -    4s
H    0     0                    4633.0000000 2132.18106  54.0%     -    6s
H    0     0                    4612.0000000 2132.18106  53.8%     -    6s
     0     0 2164.47897    0 1180 4612.00000 2164.47897  53.1%     -    6s
H    0     0                    4571.0000000 2164.47897  52.6%     -    6s
     0     0 2172.08373    0 1211 4571.00000 2172.08373  52.5%     -    7s
     0     0 2175.13043    0 1267 4571.00000 2175.13043  52.4%     -    8s
     0     0 2177.48094    0 1337 4571.00000 2177.48094  52.4%     -    9s
     0     0 2179.68336    0 1296 4571.00000 2179.68336  52.3%     -    9s
     0     0 2179.85123    0 1304 4571.00000 2179.85123  52.3%     -   10s
     0     0 2180.25417    0 1314 4571.00000 2180.25417  52.3%     -   10s
     0     0 2180.33704    0 1350 4571.00000 2180.33704  52.3%     -   10s
H    0     0                    4565.0000000 2180.33704  52.2%     -   12s
H    0     0                    4501.0000000 2180.33704  51.6%     -   13s
     0     0 2200.40051    0 1613 4501.00000 2200.40051  51.1%     -   13s
H    0     0                    4472.0000000 2200.40051  50.8%     -   15s
     0     0 2207.04927    0 1696 4472.00000 2207.04927  50.6%     -   16s
     0     0 2208.20501    0 1664 4472.00000 2208.20501  50.6%     -   18s
     0     0 2208.58497    0 1706 4472.00000 2208.58497  50.6%     -   19s
     0     0 2208.70554    0 1685 4472.00000 2208.70554  50.6%     -   19s
H    0     0                    4448.0000000 2208.70554  50.3%     -   23s
H    0     0                    4441.0000000 2208.70554  50.3%     -   23s
     0     0 2221.35013    0 1959 4441.00000 2221.35013  50.0%     -   23s
H    0     0                    4412.0000000 2221.35013  49.7%     -   24s
H    0     0                    4401.0000000 2221.35013  49.5%     -   27s
H    0     0                    4393.0000000 2221.35013  49.4%     -   27s
     0     0 2224.69865    0 2039 4393.00000 2224.69865  49.4%     -   27s
     0     0 2225.25136    0 2067 4393.00000 2225.25136  49.3%     -   28s
     0     0 2225.86540    0 2146 4393.00000 2225.86540  49.3%     -   30s
H    0     0                    4392.0000000 2225.86540  49.3%     -   31s
     0     0 2226.21760    0 2125 4392.00000 2226.21760  49.3%     -   31s
H    0     0                    4292.0000000 2226.21760  48.1%     -   32s
     0     0 2226.32033    0 2189 4292.00000 2226.32033  48.1%     -   32s
     0     0 2236.03944    0 2481 4292.00000 2236.03944  47.9%     -   40s
     0     0 2240.31585    0 2667 4292.00000 2240.31585  47.8%     -   45s
     0     0 2241.53358    0 2752 4292.00000 2241.53358  47.8%     -   50s
     0     0 2241.82217    0 2729 4292.00000 2241.82217  47.8%     -   52s
     0     0 2241.98989    0 2748 4292.00000 2241.98989  47.8%     -   54s
     0     0          -    0      4292.00000 2241.98989  47.8%     -   60s

Cutting planes:
  Gomory: 64
  Cover: 2340
  Implied bound: 294
  Clique: 762
  MIR: 88
  StrongCG: 11
  Flow cover: 226
  GUB cover: 1
  Zero half: 135
  Relax-and-lift: 14

Explored 1 nodes (91115 simplex iterations) in 60.03 seconds
Thread count was 12 (of 12 available processors)

Solution count 10: 4292 4392 4393 ... 4565

Time limit reached
Best objective 4.292000000000e+03, best bound 2.242000000000e+03, gap 47.7633%
